461608 16734.4
123236 315940
8989.46 463672
207713 258546
129823 315920
167328 308307
352207 133173
219717 247538
383806 102997
131133 315730
429917 39683.9
123062 323895
371964 107951
245644 217340
121453 325639
405324 71625.5
101726 345420
82710.1 372746
32468.3 428856
255464 191756
301124 151461
362110 121715
81570.2 377246
149142 313851
20054.9 436116
69220.9 378745
168732 298258
121388 326718
240479 227387
181919 287749
176605 291047
117168 331829
9856.35 451797
362789 116651
16901.9 439885
439375 17578.2
58298.8 399722
272361 184109
87296.6 364254
45012.9 417148
228442 238104
341291 140348
28454.7 433696
114281 336512
309690 151119
275972 177088
189017 268964
279926 176138
219046 258194
423310 57085.8
387925 97932.7
191007 265791
275579 178308
158227 311451
115794 336241
113029 339306
248856 216142
49211.5 404204
